NAME /Users/henri/Research/solvers/instances/idol-instances/robust/collection/cbp_Subramanyam_et_al_2020/CapBud_N20_9/models/uncertain_technology_matrix/
ROWS
 N  OBJ
 L  capacity
 L  c_2730
 L  c_2731
 L  c_2732
 L  c_2733
 L  c_2734
 L  c_2735
 L  c_2736
 L  c_2737
 L  c_2738
 L  c_2739
 L  c_2740
 L  c_2741
 L  c_2742
 L  c_2743
 L  c_2744
 L  c_2745
 L  c_2746
 L  c_2747
 L  c_2748
 L  c_2749
COLUMNS
    MARKER    'MARKER'                 'INTORG'
    x_0        OBJ        9.93604
    x_0        c_2730     1
    x_0        capacity   1.98721
    x_1        OBJ        9.81887
    x_1        c_2731     1
    x_1        capacity   1.96377
    x_2        OBJ        5.11339
    x_2        c_2732     1
    x_2        capacity   1.02268
    x_3        OBJ        8.27889
    x_3        c_2733     1
    x_3        capacity   1.65578
    x_4        OBJ        9.41835
    x_4        c_2734     1
    x_4        capacity   1.88367
    x_5        OBJ        8.78009
    x_5        c_2735     1
    x_5        capacity   1.75602
    x_6        OBJ        5.34764
    x_6        c_2736     1
    x_6        capacity   1.06953
    x_7        OBJ        9.95663
    x_7        c_2737     1
    x_7        capacity   1.99133
    x_8        OBJ        2.89295
    x_8        c_2738     1
    x_8        capacity   0.578591
    x_9        OBJ        9.63071
    x_9        c_2739     1
    x_9        capacity   1.92614
    x_10       OBJ        3.08351
    x_10       c_2740     1
    x_10       capacity   0.616702
    x_11       OBJ        5.75705
    x_11       c_2741     1
    x_11       capacity   1.15141
    x_12       OBJ        0.689436
    x_12       c_2742     1
    x_12       capacity   0.137887
    x_13       OBJ        8.7893
    x_13       c_2743     1
    x_13       capacity   1.75786
    x_14       OBJ        6.02029
    x_14       c_2744     1
    x_14       capacity   1.20406
    x_15       OBJ        3.97973
    x_15       c_2745     1
    x_15       capacity   0.795946
    x_16       OBJ        0.641356
    x_16       c_2746     1
    x_16       capacity   0.128271
    x_17       OBJ        7.29384
    x_17       c_2747     1
    x_17       capacity   1.45877
    x_18       OBJ        4.32075
    x_18       c_2748     1
    x_18       capacity   0.864151
    x_19       OBJ        7.80091
    x_19       c_2749     1
    x_19       capacity   1.56018
    y_0        OBJ        7.94883
    y_0        c_2730     1
    y_0        capacity   1.98721
    y_1        OBJ        7.85509
    y_1        c_2731     1
    y_1        capacity   1.96377
    y_2        OBJ        4.09071
    y_2        c_2732     1
    y_2        capacity   1.02268
    y_3        OBJ        6.62311
    y_3        c_2733     1
    y_3        capacity   1.65578
    y_4        OBJ        7.53468
    y_4        c_2734     1
    y_4        capacity   1.88367
    y_5        OBJ        7.02407
    y_5        c_2735     1
    y_5        capacity   1.75602
    y_6        OBJ        4.27811
    y_6        c_2736     1
    y_6        capacity   1.06953
    y_7        OBJ        7.9653
    y_7        c_2737     1
    y_7        capacity   1.99133
    y_8        OBJ        2.31436
    y_8        c_2738     1
    y_8        capacity   0.578591
    y_9        OBJ        7.70457
    y_9        c_2739     1
    y_9        capacity   1.92614
    y_10       OBJ        2.46681
    y_10       c_2740     1
    y_10       capacity   0.616702
    y_11       OBJ        4.60564
    y_11       c_2741     1
    y_11       capacity   1.15141
    y_12       OBJ        0.551549
    y_12       c_2742     1
    y_12       capacity   0.137887
    y_13       OBJ        7.03144
    y_13       c_2743     1
    y_13       capacity   1.75786
    y_14       OBJ        4.81623
    y_14       c_2744     1
    y_14       capacity   1.20406
    y_15       OBJ        3.18379
    y_15       c_2745     1
    y_15       capacity   0.795946
    y_16       OBJ        0.513085
    y_16       c_2746     1
    y_16       capacity   0.128271
    y_17       OBJ        5.83507
    y_17       c_2747     1
    y_17       capacity   1.45877
    y_18       OBJ        3.4566
    y_18       c_2748     1
    y_18       capacity   0.864151
    y_19       OBJ        6.24073
    y_19       c_2749     1
    y_19       capacity   1.56018
    MARKER    'MARKER'                 'INTEND'
RHS
    RHS       capacity   63.7749
    RHS       c_2730     1
    RHS       c_2731     1
    RHS       c_2732     1
    RHS       c_2733     1
    RHS       c_2734     1
    RHS       c_2735     1
    RHS       c_2736     1
    RHS       c_2737     1
    RHS       c_2738     1
    RHS       c_2739     1
    RHS       c_2740     1
    RHS       c_2741     1
    RHS       c_2742     1
    RHS       c_2743     1
    RHS       c_2744     1
    RHS       c_2745     1
    RHS       c_2746     1
    RHS       c_2747     1
    RHS       c_2748     1
    RHS       c_2749     1
BOUNDS
 LI BND       x_0        0
 UI BND       x_0        1
 LI BND       x_1        0
 UI BND       x_1        1
 LI BND       x_2        0
 UI BND       x_2        1
 LI BND       x_3        0
 UI BND       x_3        1
 LI BND       x_4        0
 UI BND       x_4        1
 LI BND       x_5        0
 UI BND       x_5        1
 LI BND       x_6        0
 UI BND       x_6        1
 LI BND       x_7        0
 UI BND       x_7        1
 LI BND       x_8        0
 UI BND       x_8        1
 LI BND       x_9        0
 UI BND       x_9        1
 LI BND       x_10       0
 UI BND       x_10       1
 LI BND       x_11       0
 UI BND       x_11       1
 LI BND       x_12       0
 UI BND       x_12       1
 LI BND       x_13       0
 UI BND       x_13       1
 LI BND       x_14       0
 UI BND       x_14       1
 LI BND       x_15       0
 UI BND       x_15       1
 LI BND       x_16       0
 UI BND       x_16       1
 LI BND       x_17       0
 UI BND       x_17       1
 LI BND       x_18       0
 UI BND       x_18       1
 LI BND       x_19       0
 UI BND       x_19       1
 LI BND       y_0        0
 UI BND       y_0        1
 LI BND       y_1        0
 UI BND       y_1        1
 LI BND       y_2        0
 UI BND       y_2        1
 LI BND       y_3        0
 UI BND       y_3        1
 LI BND       y_4        0
 UI BND       y_4        1
 LI BND       y_5        0
 UI BND       y_5        1
 LI BND       y_6        0
 UI BND       y_6        1
 LI BND       y_7        0
 UI BND       y_7        1
 LI BND       y_8        0
 UI BND       y_8        1
 LI BND       y_9        0
 UI BND       y_9        1
 LI BND       y_10       0
 UI BND       y_10       1
 LI BND       y_11       0
 UI BND       y_11       1
 LI BND       y_12       0
 UI BND       y_12       1
 LI BND       y_13       0
 UI BND       y_13       1
 LI BND       y_14       0
 UI BND       y_14       1
 LI BND       y_15       0
 UI BND       y_15       1
 LI BND       y_16       0
 UI BND       y_16       1
 LI BND       y_17       0
 UI BND       y_17       1
 LI BND       y_18       0
 UI BND       y_18       1
 LI BND       y_19       0
 UI BND       y_19       1
ENDATA
